language Essence 1.3

letting length be 5

$ vincular mix param file
$ mesh_avoidance = permutation + mesh pieces + vincular indeces
$letting mesh_avoidance be { (sequence(1,3,2), relation( (1, 0), (1, 1), (1, 2), (1, 3), (2,1) ) }

letting mesh_avoidance be {(sequence(1,3,2), relation((1, 0), (1, 1), (1, 2), (1, 3), (1, 4), (2, 1), (3, 2), (0, 2), (2, 3)))}

